NAME : X_38_seed_123_id_5
TYPE : CVRP
DIMENSION : 275
EDGE_WEIGHT_TYPE : EUC_2D
CAPACITY : 10
NODE_COORD_SECTION
1	26	631
2	30	934
3	567	43
4	340	790
5	419	786
6	537	9
7	376	790
8	339	841
9	507	18
10	48	964
11	348	780
12	552	114
13	52	947
14	198	798
15	393	10
16	347	868
17	362	887
18	77	843
19	565	15
20	29	925
21	19	939
22	540	55
23	278	834
24	440	809
25	373	702
26	72	831
27	338	776
28	322	753
29	633	119
30	531	15
31	188	792
32	44	991
33	73	902
34	313	891
35	366	840
36	327	804
37	7	901
38	533	103
39	54	908
40	354	883
41	377	790
42	519	32
43	590	95
44	445	1
45	391	732
46	383	106
47	461	773
48	403	4
49	1	948
50	638	168
51	31	918
52	9	959
53	253	875
54	297	746
55	626	27
56	382	699
57	79	850
58	92	951
59	342	736
60	41	859
61	365	822
62	257	773
63	317	870
64	31	983
65	522	71
66	16	979
67	842	4
68	345	760
69	564	35
70	340	578
71	377	742
72	68	899
73	279	775
74	507	71
75	527	53
76	297	852
77	528	123
78	324	849
79	105	771
80	275	756
81	352	702
82	610	95
83	329	772
84	587	54
85	652	136
86	319	733
87	515	823
88	609	1
89	617	38
90	331	659
91	316	805
92	379	745
93	49	985
94	66	820
95	325	761
96	332	886
97	227	780
98	538	69
99	51	974
100	625	28
101	331	734
102	558	38
103	350	863
104	440	4
105	349	783
106	298	837
107	47	900
108	551	40
109	406	755
110	392	717
111	8	948
112	38	853
113	32	826
114	33	926
115	390	879
116	81	811
117	533	87
118	86	978
119	603	196
120	546	76
121	342	753
122	379	755
123	0	971
124	692	125
125	596	112
126	300	715
127	17	964
128	369	757
129	36	939
130	66	971
131	521	47
132	609	63
133	53	960
134	409	821
135	582	71
136	570	44
137	50	922
138	560	147
139	434	11
140	73	978
141	327	813
142	315	853
143	265	902
144	591	85
145	435	149
146	707	65
147	294	814
148	308	752
149	565	73
150	360	788
151	65	839
152	52	979
153	583	5
154	188	989
155	363	788
156	630	42
157	43	999
158	532	84
159	316	742
160	472	82
161	470	895
162	106	927
163	544	140
164	310	751
165	15	867
166	657	104
167	564	90
168	5	781
169	400	817
170	80	936
171	559	91
172	579	51
173	26	963
174	30	931
175	533	87
176	539	119
177	431	902
178	346	826
179	434	792
180	354	802
181	384	768
182	565	133
183	379	740
184	81	899
185	390	701
186	43	972
187	296	804
188	579	51
189	538	67
190	8	922
191	434	790
192	56	958
193	386	923
194	13	910
195	538	30
196	67	897
197	544	22
198	415	834
199	279	788
200	452	951
201	9	900
202	103	855
203	343	826
204	386	834
205	14	910
206	245	845
207	85	891
208	72	910
209	614	92
210	534	22
211	528	90
212	545	62
213	182	694
214	594	58
215	288	821
216	166	932
217	16	937
218	12	958
219	174	748
220	664	74
221	411	730
222	302	779
223	633	83
224	376	753
225	296	781
226	355	663
227	583	20
228	481	92
229	611	61
230	346	770
231	41	984
232	284	792
233	64	810
234	535	25
235	20	958
236	425	905
237	404	683
238	56	933
239	314	807
240	33	965
241	608	40
242	29	991
243	352	731
244	409	802
245	76	995
246	587	30
247	522	27
248	65	914
249	601	8
250	535	0
251	576	29
252	590	17
253	41	960
254	378	0
255	647	30
256	59	935
257	571	77
258	645	104
259	440	895
260	344	800
261	625	63
262	365	818
263	288	636
264	29	845
265	142	827
266	380	817
267	652	101
268	552	61
269	385	894
270	7	926
271	104	906
272	509	32
273	427	911
274	344	748
275	345	865
DEMAND_SECTION
1	0
2	1
3	1
4	1
5	1
6	1
7	1
8	1
9	1
10	1
11	1
12	1
13	1
14	1
15	1
16	1
17	1
18	1
19	1
20	1
21	1
22	1
23	1
24	1
25	1
26	1
27	1
28	1
29	1
30	1
31	1
32	1
33	1
34	1
35	1
36	1
37	1
38	1
39	1
40	1
41	1
42	1
43	1
44	1
45	1
46	1
47	1
48	1
49	1
50	1
51	1
52	1
53	1
54	1
55	1
56	1
57	1
58	1
59	1
60	1
61	1
62	1
63	1
64	1
65	1
66	1
67	1
68	1
69	1
70	1
71	1
72	1
73	1
74	1
75	1
76	1
77	1
78	1
79	1
80	1
81	1
82	1
83	1
84	1
85	1
86	1
87	1
88	1
89	1
90	1
91	1
92	1
93	1
94	1
95	1
96	1
97	1
98	1
99	1
100	1
101	1
102	1
103	1
104	1
105	1
106	1
107	1
108	1
109	1
110	1
111	1
112	1
113	1
114	1
115	1
116	1
117	1
118	1
119	1
120	1
121	1
122	1
123	1
124	1
125	1
126	1
127	1
128	1
129	1
130	1
131	1
132	1
133	1
134	1
135	1
136	1
137	1
138	1
139	1
140	1
141	1
142	1
143	1
144	1
145	1
146	1
147	1
148	1
149	1
150	1
151	1
152	1
153	1
154	1
155	1
156	1
157	1
158	1
159	1
160	1
161	1
162	1
163	1
164	1
165	1
166	1
167	1
168	1
169	1
170	1
171	1
172	1
173	1
174	1
175	1
176	1
177	1
178	1
179	1
180	1
181	1
182	1
183	1
184	1
185	1
186	1
187	1
188	1
189	1
190	1
191	1
192	1
193	1
194	1
195	1
196	1
197	1
198	1
199	1
200	1
201	1
202	1
203	1
204	1
205	1
206	1
207	1
208	1
209	1
210	1
211	1
212	1
213	1
214	1
215	1
216	1
217	1
218	1
219	1
220	1
221	1
222	1
223	1
224	1
225	1
226	1
227	1
228	1
229	1
230	1
231	1
232	1
233	1
234	1
235	1
236	1
237	1
238	1
239	1
240	1
241	1
242	1
243	1
244	1
245	1
246	1
247	1
248	1
249	1
250	1
251	1
252	1
253	1
254	1
255	1
256	1
257	1
258	1
259	1
260	1
261	1
262	1
263	1
264	1
265	1
266	1
267	1
268	1
269	1
270	1
271	1
272	1
273	1
274	1
275	1
DEPOT_SECTION
1
-1
EOF
